outputs/case_362.model.txt
foreign_exchange_derivative_permit_applied = False
has_derivative_license = False
has_structured_product_qualification = False
derivative_training_months = 0
foreign_exchange_filing_completed = False
derivative_experience_months = 0
foreign_exchange_permit_obtained = False
passed_structured_product_exam = False
foreign_exchange_derivative_filing_completed = False
derivative_internship_years = 0
internal_control_system_executed = True
internal_control_system_established = True
internal_handling_system_executed = True
internal_operation_system_executed = True
internal_handling_system_established = True
internal_operation_system_established = True
internal_operation_executed = True
internal_control_executed = True
internal_handling_established = True
internal_operation_ok = True
foreign_exchange_permit_required = False
penalty = False
internal_control_established = True
internal_handling_executed = True
internal_operation_established = True
internal_handling_ok = True
internal_control_ok = True
derivative_personnel_qualified = 0
foreign_exchange_derivative_permit_required = False